32085
149 104 114 5 86 94 96 131 102 134 130 92 25 3 101 4 37 47 36 124 19 106 70 32 139 142 13 87 112 117 111 80 116 127 77 137 17 41 135 50 58 119 67 113 53 0 91 69 76 21 121 145 148 110 78 10 95 118 62 146 115 11 55 20 33 8 44 28 60 48 140 74 22 88 100 29 83 93 43 108 51 14 49 147 66 143 68 79 90 59 12 31 9 122 97 141 64 23 75 129 138 27 24 98 105 38 46 57 26 132 82 61 39 18 1 125 42 30 144 128 81 89 6 72 2 107 16 34 136 103 54 123 52 40 73 7 45 85 15 71 109 63 35 120 56 126 84 65 133 99 
